;; ===================== PROJECTED CANON (QE) =====================
;; Each clause below is entailed by Proj = ∃W.F over the canonical vocabulary.
;; Units appear first for clarity; OR-clauses (SAT-filtered) follow.
;; ==================================================================

;; Unit Bool constraints (entailed)
(assert (not patient_is_pregnant_now))
(assert (not patient_has_diagnosis_of_cryoglobulinemia_now))
(assert (not patient_has_finding_of_diabetic_poor_control_now))
(assert (not patient_is_exposed_to_iloprost_now))
(assert (not patient_has_finding_of_skin_loss_exposing_bone_now))
